# Solution for model GasLib-40
# Objective value = 4.8152765830726551e+01
loadshed[innode_1] 0
loadshed[innode_2] 0
loadshed[innode_3] 0
loadshed[innode_4] 0
loadshed[innode_5] 0
loadshed[innode_6] 0
loadshed[innode_7] 0
loadshed[innode_8] 0
loadshed[source_1] -1.1613171014479762e-01
loadshed[source_2] 1.8039186920974315e-01
loadshed[source_3] 2.4033014533309760e-01
loadshed[sink_1] 6.1094383307109479e-02
loadshed[sink_2] 0
loadshed[sink_3] 0
loadshed[sink_4] 0
loadshed[sink_5] 0
loadshed[sink_6] 0
loadshed[sink_7] 0
loadshed[sink_8] 0
loadshed[sink_9] 0
loadshed[sink_10] 0
loadshed[sink_11] 0
loadshed[sink_12] 1
loadshed[sink_13] 0
loadshed[sink_14] 0
loadshed[sink_15] 0
loadshed[sink_16] 0
loadshed[sink_17] 0
loadshed[sink_18] 0
loadshed[sink_19] 0
loadshed[sink_20] 0
loadshed[sink_21] 1
loadshed[sink_22] 0
loadshed[sink_23] 0
loadshed[sink_24] 8.8327855920865406e-01
loadshed[sink_25] 0
loadshed[sink_26] 0
loadshed[sink_27] 0
loadshed[sink_28] 0
loadshed[sink_29] 0
flow[source_1,sink_3] 1.7644957209337718e+02
flow[innode_1,sink_16] 1.6354166666666970e+01
flow[innode_6,sink_13] -5.6172516770280794e+00
flow[sink_13,sink_14] -2.1971418343694747e+01
flow[sink_14,sink_10] -3.8325585010361415e+01
flow[sink_25,sink_26] 0
flow[sink_26,sink_9] 6.7577325899578810e+01
flow[sink_9,sink_18] 5.1223159232912138e+01
flow[sink_26,sink_4] -8.3931492566245453e+01
flow[sink_4,sink_20] -1.0028565923291205e+02
flow[sink_18,sink_6] 3.4868992566245474e+01
flow[sink_25,innode_8] -1.4374123876004083e+02
flow[sink_6,sink_7] -1.3194359706752778e+01
flow[sink_6,sink_22] 3.1709185606331651e+01
flow[sink_7,sink_24] 1.9088818962751337e+00
flow[sink_22,sink_1] 1.5355018939664982e+01
flow[sink_24,sink_21] 0
flow[sink_21,sink_12] 0
flow[sink_7,sink_5] -3.1457408269694572e+01
flow[sink_5,sink_17] -4.7811574936361211e+01
flow[sink_17,sink_4] 0
flow[sink_17,sink_8] -64.1657416030279
flow[sink_3,sink_23] 16.3541666666697
flow[sink_8,sink_20] -8.0519908269694568e+01
flow[sink_25,sink_20] 1.9715973416927335e+02
flow[sink_25,sink_15] -6.4155410398872235e+01
flow[sink_15,sink_29] -80.5095770655389
flow[sink_29,sink_28] 1.6354166666667879e+01
flow[sink_29,sink_2] 1.6354166666684250e+01
flow[sink_2,sink_15] 0
flow[sink_29,innode_7] -1.2957207706555693e+02
flow[innode_4,sink_19] 4.6591822947717013e+01
flow[sink_19,innode_3] 4.2645016620150223e+01
flow[innode_4,innode_5] 7.3504595395977660e+01
flow[sink_27,innode_5] -7.3504595395977660e+01
flow[sink_27,sink_19] 5.7150428729310995e+01
flow[sink_10,sink_11] 3.2708333333333641e+01
flow[sink_10,innode_2] -44.7430683902115
flow[sink_10,innode_3] -4.2645016620150223e+01
flow[innode_6,sink_25] 5.6172516770280794e+00
flow[sink_11,innode_1] 1.6354166666666970e+01
flow[sink_19,innode_2] 44.7430683902115
flow[source_3,innode_4] 1.2009641834369467e+02
flow[source_2,innode_7] 1.2957207706555693e+02
flow[sink_3,innode_8] 1.4374123876004083e+02
pressure[innode_1] 7.6609139268795559e+01
pressure[innode_2] 7.9125696535746485e+01
pressure[innode_3] 7.9031263975465436e+01
pressure[innode_4] 81.01325
pressure[innode_5] 8.0962689663377333e+01
pressure[innode_6] 74.8778075256833
pressure[innode_7] 81.01325
pressure[innode_8] 8.0423446486671580e+01
pressure[source_1] 81.01325
pressure[source_2] 81.01325
pressure[source_3] 81.01325
pressure[sink_1] 1.0132500000000002e+00
pressure[sink_2] 7.7133435038061421e+01
pressure[sink_3] 8.0423446486671580e+01
pressure[sink_4] 2.0518107479187428e+01
pressure[sink_5] 16.2816676403274
pressure[sink_6] 3.0176504300771940e+00
pressure[sink_7] 3.1987775382574575e+00
pressure[sink_8] 2.2264424510276260e+01
pressure[sink_9] 5.8021629225481117e+00
pressure[sink_10] 76.7608405763991
pressure[sink_11] 7.6609139268795559e+01
pressure[sink_12] 1.01325
pressure[sink_13] 74.9087744954488
pressure[sink_14] 7.4948094220125853e+01
pressure[sink_15] 7.5189023780550514e+01
pressure[sink_16] 7.5587489433977879e+01
pressure[sink_17] 1.9843284381096502e+01
pressure[sink_18] 3.9487563502303189e+00
pressure[sink_19] 7.9125696535746485e+01
pressure[sink_20] 2.7875529743379726e+01
pressure[sink_21] 1.01325
pressure[sink_22] 2.0120288226216796e+00
pressure[sink_23] 80.2587284750118
pressure[sink_24] 1.01325
pressure[sink_25] 74.8778075256833
pressure[sink_26] 9.8468402899149439e+00
pressure[sink_27] 8.0352737343478893e+01
pressure[sink_28] 77.2524222629079
pressure[sink_29] 7.7547704536525075e+01
interdiction[source_1,sink_3] 0
interdiction[innode_1,sink_16] 0
interdiction[innode_6,sink_13] 0
interdiction[sink_13,sink_14] 0
interdiction[sink_14,sink_10] 0
interdiction[sink_25,sink_26] 1
interdiction[sink_26,sink_9] 0
interdiction[sink_9,sink_18] 0
interdiction[sink_26,sink_4] 0
interdiction[sink_4,sink_20] 0
interdiction[sink_18,sink_6] 0
interdiction[sink_25,innode_8] 0
interdiction[sink_6,sink_7] 0
interdiction[sink_6,sink_22] 0
interdiction[sink_7,sink_24] 0
interdiction[sink_22,sink_1] 0
interdiction[sink_24,sink_21] 0
interdiction[sink_21,sink_12] 0
interdiction[sink_7,sink_5] 0
interdiction[sink_5,sink_17] 0
interdiction[sink_17,sink_4] 1
interdiction[sink_17,sink_8] 0
interdiction[sink_3,sink_23] 0
interdiction[sink_8,sink_20] 0
interdiction[sink_25,sink_20] 0
interdiction[sink_25,sink_15] 0
interdiction[sink_15,sink_29] 0
interdiction[sink_29,sink_28] 0
interdiction[sink_29,sink_2] 0
interdiction[sink_2,sink_15] 1
interdiction[sink_29,innode_7] 0
interdiction[innode_4,sink_19] 0
interdiction[sink_19,innode_3] 0
interdiction[innode_4,innode_5] 0
interdiction[sink_27,innode_5] 0
interdiction[sink_27,sink_19] 0
interdiction[sink_10,sink_11] 0
interdiction[sink_10,innode_2] 0
interdiction[sink_10,innode_3] 0
interdiction[innode_6,sink_25] 0
interdiction[sink_11,innode_1] 0
interdiction[sink_19,innode_2] 0
interdiction[source_3,innode_4] 0
interdiction[source_2,innode_7] 0
interdiction[sink_3,innode_8] 0
WCcheckFlow[source_1,sink_3] 39
WCcheckFlow[innode_1,sink_16] 1
WCcheckFlow[innode_6,sink_13] 13
WCcheckFlow[sink_13,sink_14] 12
WCcheckFlow[sink_14,sink_10] 11
WCcheckFlow[sink_25,sink_26] 0
WCcheckFlow[sink_26,sink_9] 12
WCcheckFlow[sink_9,sink_18] 11
WCcheckFlow[sink_26,sink_4] -13
WCcheckFlow[sink_4,sink_20] -14
WCcheckFlow[sink_18,sink_6] 10
WCcheckFlow[sink_25,innode_8] -36
WCcheckFlow[sink_6,sink_7] 7
WCcheckFlow[sink_6,sink_22] 2
WCcheckFlow[sink_7,sink_24] 3
WCcheckFlow[sink_22,sink_1] 1
WCcheckFlow[sink_24,sink_21] 2
WCcheckFlow[sink_21,sink_12] 1
WCcheckFlow[sink_7,sink_5] 3
WCcheckFlow[sink_5,sink_17] 2
WCcheckFlow[sink_17,sink_4] 0
WCcheckFlow[sink_17,sink_8] 1
WCcheckFlow[sink_3,sink_23] 1
WCcheckFlow[sink_8,sink_20] 0
WCcheckFlow[sink_25,sink_20] 15
WCcheckFlow[sink_25,sink_15] 6
WCcheckFlow[sink_15,sink_29] 5
WCcheckFlow[sink_29,sink_28] 1
WCcheckFlow[sink_29,sink_2] 1
WCcheckFlow[sink_2,sink_15] 0
WCcheckFlow[sink_29,innode_7] 2
WCcheckFlow[innode_4,sink_19] -4
WCcheckFlow[sink_19,innode_3] -5
WCcheckFlow[innode_4,innode_5] 2
WCcheckFlow[sink_27,innode_5] -1
WCcheckFlow[sink_27,sink_19] 0
WCcheckFlow[sink_10,sink_11] 3
WCcheckFlow[sink_10,innode_2] 1
WCcheckFlow[sink_10,innode_3] 6
WCcheckFlow[innode_6,sink_25] -14
WCcheckFlow[sink_11,innode_1] 2
WCcheckFlow[sink_19,innode_2] 0
WCcheckFlow[source_3,innode_4] -1
WCcheckFlow[source_2,innode_7] -1
WCcheckFlow[sink_3,innode_8] 37
